% Generated FlatZinc statistics:
%%%mzn-stat: paths=0
%%%mzn-stat: flatBoolVars=467590
%%%mzn-stat: flatIntVars=162351
%%%mzn-stat: flatBoolConstraints=163660
%%%mzn-stat: flatIntConstraints=645481
%%%mzn-stat: evaluatedReifiedConstraints=466620
%%%mzn-stat: evaluatedHalfReifiedConstraints=314110
%%%mzn-stat: method="minimize"
%%%mzn-stat: flatTime=20.4161
%%%mzn-stat-end

agentAtTimeT = array2d(1..35, 1..10, [86, 106, 180, 97, 412, 168, 285, 380, 425, 217, 87, 123, 181, 114, 413, 169, 266, 379, 426, 216, 88, 140, 182, 113, 414, 170, 265, 378, 427, 194, 89, 159, 183, 128, 434, 171, 264, 397, 428, 193, 90, 160, 203, 148, 435, 191, 263, 416, 429, 192, 91, 161, 204, 167, 436, 192, 243, 415, 430, 191, 92, 162, 205, 188, 415, 193, 222, 436, 431, 190, 93, 163, 206, 210, 416, 194, 202, 435, 411, 189, 94, 164, 226, 230, 417, 216, 201, 434, 393, 212, 95, 184, 227, 250, 418, 236, 200, 433, 374, 211, 96, 185, 228, 269, 419, 255, 200, 432, 358, 210, 97, 186, 229, 290, 420, 256, 200, 431, 341, 209, 98, 207, 230, 289, 421, 256, 200, 430, 321, 208, 75, 227, 231, 306, 422, 256, 200, 429, 304, 207, 76, 247, 232, 323, 401, 256, 200, 428, 287, 186, 56, 267, 232, 342, 383, 256, 200, 427, 288, 186, 36, 287, 232, 360, 367, 256, 200, 426, 289, 186, 16, 304, 232, 359, 350, 256, 200, 425, 268, 186, 16, 321, 232, 375, 332, 256, 200, 407, 249, 186, 16, 322, 232, 374, 332, 256, 200, 388, 250, 186, 16, 323, 232, 393, 332, 256, 200, 371, 251, 186, 16, 324, 232, 392, 332, 256, 200, 370, 231, 186, 16, 325, 232, 391, 332, 256, 200, 370, 211, 186, 16, 326, 232, 409, 332, 256, 200, 370, 212, 186, 16, 327, 232, 409, 332, 256, 200, 370, 213, 186, 16, 328, 232, 409, 332, 256, 200, 370, 214, 186, 16, 329, 232, 409, 332, 256, 200, 370, 215, 186, 16, 329, 232, 409, 332, 256, 200, 370, 192, 186, 16, 329, 232, 409, 332, 256, 200, 370, 193, 186, 16, 329, 232, 409, 332, 256, 200, 370, 173, 186, 16, 329, 232, 409, 332, 256, 200, 370, 153, 186, 16, 329, 232, 409, 332, 256, 200, 370, 153, 186, 16, 329, 232, 409, 332, 256, 200, 370, 153, 186, 16, 329, 232, 409, 332, 256, 200, 370, 153, 186, 16, 329, 232, 409, 332, 256, 200, 370, 153, 186]);
ET = [18, 27, 15, 24, 19, 12, 10, 22, 31, 15];
objective = 193;
----------
==========
%%%mzn-stat: objective=193
%%%mzn-stat: objectiveBound=193
%%%mzn-stat: boolVariables=116142
%%%mzn-stat: failures=9342
%%%mzn-stat: propagations=13397838
%%%mzn-stat: solveTime=42.1042
%%%mzn-stat: nSolutions=1
%%%mzn-stat-end
